\Problem name: MKM Optimizer

Minimize
OBJROW: 0.12000 offer_000 + 0.53000 offer_001 + 5.77000 offer_002 + 2.27000 offer_003 + 2.86000 offer_004 + 1.69000 offer_005 + 0.70000 offer_006 + 29.04000 offer_007 + 2.86000 offer_008 + 5.77000 offer_009
 + 2.27000 offer_010 + 1.69000 offer_011 + 3.54000 offer_012 + 0.75000 offer_013 + 11.99000 offer_014 + 33.99000 offer_015 + 2.49000 offer_016 + 0.11000 offer_017 + 1.74000 offer_018 + 0.25000 offer_019
 + 0.25000 offer_020 + 24.95000 offer_021 + 42.95000 offer_022 + 4.66000 offer_023 + 0.12000 offer_024 + 0.12000 offer_025 + 0.18000 offer_026 + 4.60000 offer_027 + 2.16000 offer_028 + 0.30000 offer_029
 + 0.12000 offer_030 + 1.46000 offer_031 + 4.60000 offer_032 + 0.12000 offer_033 + 1.69000 offer_034 + 0.12000 offer_035 + 0.12000 offer_036 + 2.22000 offer_037 + 1.46000 offer_038 + 8.09000 offer_039
 + 0.35000 offer_040 + 5.82000 offer_041 + 0.33000 offer_042 + 0.07000 offer_043 + 0.32000 offer_044 + 4.46000 offer_045 + 1.05000 offer_046 + 2.11000 offer_047 + 5.53000 offer_048 + 0.20000 offer_049
 + 0.25000 offer_050 + 3.01000 offer_051 + 0.49000 offer_052 + 3.76000 offer_053 + 1.70000 offer_054 + 0.54000 offer_055 + 2.16000 offer_056 + 5.24000 offer_057 + 6.41000 offer_058 + 0.03000 offer_059
 + 1.97000 offer_060 + 52.37000 offer_061 + 0.02000 offer_062 + 0.15000 offer_063 + 0.08000 offer_064 + 1.72000 offer_065 + 0.10000 offer_066 + 0.17000 offer_067 + 6.98000 offer_068 + 0.04000 offer_069
 + 0.05000 offer_070 + 0.19000 offer_071 + 0.05000 offer_072 + 0.87000 offer_073 + 2.20000 offer_074 + 0.30000 offer_075 + 1.95000 offer_076 + 0.14000 offer_077 + 3.70000 offer_078 + 0.06000 offer_079
 + 0.99000 offer_080 + 0.35000 offer_081 + 0.22000 offer_082 + 2.74000 offer_083 + 0.50000 offer_084 + 5.82000 offer_085 + 1.52000 offer_086 + 0.09000 offer_087 + 0.12000 offer_088 + 0.06000 offer_089
 + 0.20000 offer_090 + 0.02000 offer_091 + 0.05000 offer_092 + 3.40000 offer_093 + 0.21000 offer_094 + 0.35000 offer_095 + 0.13000 offer_096 + 1.03000 offer_097 + 0.53000 offer_098 + 1.02000 offer_099
 + 0.30000 offer_100 + 0.33000 offer_101 + 3.50000 offer_102 + 2.91000 offer_103 + 2.33000 offer_104 + 2.62000 offer_105 + 0.59000 offer_106 + 1.40000 offer_107 + 0.50000 offer_108 + 0.40000 offer_109
 + 1.20000 offer_110 + 1.70000 offer_111 + 0.30000 offer_112 + 4.75000 offer_113 + 9.50000 offer_114 + 1.50000 offer_115 + 0.20000 offer_116 + 4.50000 offer_117 + 0.15000 offer_118 + 1.75000 offer_119
 + 3.48000 offer_120 + 2.27000 offer_121 + 0.23000 offer_122 + 2.90000 offer_123 + 0.77000 offer_124 + 1.11000 offer_125 + 1.81000 offer_126 + 17.40000 offer_127 + 9.99000 offer_128 + 11.75000 offer_129
 + 0.09000 offer_130 + 0.99000 offer_131 + 30.26000 offer_132 + 2.27000 offer_133 + 2.11000 offer_134 + 0.19000 offer_135 + 6.98000 offer_136 + 45.46000 offer_137 + 0.31000 offer_138 + 10.48000 offer_139
 + 3.79000 offer_140 + 0.53000 offer_141 + 0.10000 offer_142 + 3.90000 offer_143 + 0.10000 offer_144 + 0.30000 offer_145 + 1.75000 offer_146 + 0.53000 offer_147 + 4.49000 offer_148 + 1.29000 offer_149
 + 2.62000 offer_150 + 0.18000 offer_151 + 9.27000 offer_152 + 2.03000 offer_153 + 3.26000 offer_154 + 0.06000 offer_155 + 1.15000 offer_156 + 8.13000 offer_157 + 0.06000 offer_158 + 2.44000 offer_159
 + 14.81000 offer_160 + 0.20000 offer_161 + 8.97000 offer_162 + 0.14000 offer_163 + 4.07000 offer_164 + 0.03000 offer_165 + 0.34000 offer_166 + 0.58000 offer_167 + 0.05000 offer_168 + 0.20000 offer_169
 + 0.06000 offer_170 + 0.25000 offer_171 + 0.03000 offer_172 + 0.10000 offer_173 + 0.24000 offer_174 + 0.12000 offer_175 + 1.14000 offer_176 + 0.95000 offer_177 + 6.63000 offer_178 + 2.50000 offer_179
 + 0.49000 offer_180 + 4.66000 offer_181 + 0.23000 offer_182 + 0.62000 offer_183 + 3.76000 offer_184 + 6.12000 offer_185 + 3.15000 offer_186 + 0.14000 offer_187 + 3.50000 offer_188 + 1.74000 offer_189
 + 0.52000 offer_190 + 0.18000 offer_191 + 3.72000 offer_192 + 0.16000 offer_193 + 3.45000 offer_194 + 2.89000 offer_195 + 1.04000 offer_196 + 1.53000 offer_197 + 0.03000 offer_198 + 0.09000 offer_199
 + 2.70000 offer_200 + 0.05000 offer_201 + 1.99000 offer_202 + 0.50000 offer_203 + 0.50000 offer_204 + 0.50000 offer_205 + 0.50000 offer_206 + 0.50000 offer_207 + 3.43000 offer_208 + 0.84000 offer_209
 + 0.11000 offer_210 + 1.68000 offer_211 + 0.34000 offer_212 + 2.26000 offer_213 + 0.23000 offer_214 + 0.11000 offer_215 + 4.08000 offer_216 + 2.33000 offer_217 + 2.57000 offer_218 + 0.47000 offer_219
 + 2.33000 offer_220 + 1.75000 offer_221 + 2 offer_222 + 0.20000 offer_223 + 0.60000 offer_224 + 0.33000 offer_225 + 0.03000 offer_226 + 4.85000 offer_227 + 3.25000 offer_228 + 0.50000 offer_229
 + 44.85000 offer_230 + 1.45000 offer_231 + 0.11000 offer_232 + 0.11000 offer_233 + 0.11000 offer_234 + 0.11000 offer_235 + 0.12000 offer_236 + 0.44000 offer_237 + 14.55000 offer_238 + 2.33000 offer_239
 + 0.12000 offer_240 + 6.41000 offer_241 + 2.91000 offer_242 + 9.90000 offer_243 + 1.75000 offer_244 + 0.06000 offer_245 + 0.06000 offer_246 + 0.11000 offer_247 + 0.34000 offer_248 + 2.99000 offer_249
 + 3.48000 offer_250 + 9.32000 offer_251 + 1.10000 seller_000 + 1.10000 seller_001 + 1.10000 seller_002 + 1.10000 seller_003 + 1.10000 seller_004 + 1.10000 seller_005 + 1.10000 seller_006 + 1.10000 seller_007
 + 1.10000 seller_008 + 1.10000 seller_009 + 1.10000 seller_010 + 1.10000 seller_011 + 1.10000 seller_012 + 1.10000 seller_013 + 1.10000 seller_014 + 1.10000 seller_015 + 1.10000 seller_016 + 1.10000 seller_017
 + 1.10000 seller_018 + 1.10000 seller_019 + 1.10000 seller_020 + 1.10000 seller_021 + 1.10000 seller_022 + 1.10000 seller_023 + 1.10000 seller_024 + 1.10000 seller_025 + 1.10000 seller_026 + 1.10000 seller_027
 + 1.10000 seller_028 + 1.10000 seller_029 + 1.10000 seller_030 + 1.10000 seller_031 + 1.10000 seller_032 + 1.10000 seller_033 + 1.10000 seller_034 + 1.10000 seller_035 + 1.10000 seller_036 + 1.10000 seller_037
 + 1.10000 seller_038 + 1.10000 seller_039 + 1.10000 seller_040 + 1.10000 seller_041 + 1.10000 seller_042 + 1.10000 seller_043 + 1.10000 seller_044 + 1.10000 seller_045 + 1.10000 seller_046 + 1.10000 seller_047
 + 1.10000 seller_048 + 1.10000 seller_049 + 1.10000 seller_050 + 1.10000 seller_051 + 1.10000 seller_052 + 1.10000 seller_053 + 1.10000 seller_054 + 1.10000 seller_055 + 1.10000 seller_056 + 1.10000 seller_057
 + 1.10000 seller_058
Subject To
constr(0):  offer_000 - seller_000 <= -0
constr(1):  offer_001 - seller_000 <= -0
constr(2):  offer_002 - seller_001 <= -0
constr(3):  offer_003 - seller_001 <= -0
constr(4):  offer_004 - seller_001 <= -0
constr(5):  offer_005 - seller_001 <= -0
constr(6):  offer_006 - seller_001 <= -0
constr(7):  offer_007 - seller_001 <= -0
constr(8):  offer_008 - seller_001 <= -0
constr(9):  offer_009 - seller_001 <= -0
constr(10):  offer_010 - seller_001 <= -0
constr(11):  offer_011 - seller_001 <= -0
constr(12):  offer_012 - seller_002 <= -0
constr(13):  offer_013 - seller_002 <= -0
constr(14):  offer_014 - seller_002 <= -0
constr(15):  offer_015 - seller_002 <= -0
constr(16):  offer_016 - seller_002 <= -0
constr(17):  offer_017 - seller_002 <= -0
constr(18):  offer_018 - seller_002 <= -0
constr(19):  offer_019 - seller_002 <= -0
constr(20):  offer_020 - seller_002 <= -0
constr(21):  offer_021 - seller_003 <= -0
constr(22):  offer_022 - seller_003 <= -0
constr(23):  offer_023 - seller_004 <= -0
constr(24):  offer_024 - seller_004 <= -0
constr(25):  offer_025 - seller_004 <= -0
constr(26):  offer_026 - seller_004 <= -0
constr(27):  offer_027 - seller_005 <= -0
constr(28):  offer_028 - seller_005 <= -0
constr(29):  offer_029 - seller_005 <= -0
constr(30):  offer_030 - seller_005 <= -0
constr(31):  offer_031 - seller_005 <= -0
constr(32):  offer_032 - seller_006 <= -0
constr(33):  offer_033 - seller_006 <= -0
constr(34):  offer_034 - seller_006 <= -0
constr(35):  offer_035 - seller_006 <= -0
constr(36):  offer_036 - seller_006 <= -0
constr(37):  offer_037 - seller_007 <= -0
constr(38):  offer_038 - seller_007 <= -0
constr(39):  offer_039 - seller_008 <= -0
constr(40):  offer_040 - seller_008 <= -0
constr(41):  offer_041 - seller_009 <= -0
constr(42):  offer_042 - seller_009 <= -0
constr(43):  offer_043 - seller_009 <= -0
constr(44):  offer_044 - seller_009 <= -0
constr(45):  offer_045 - seller_010 <= -0
constr(46):  offer_046 - seller_010 <= -0
constr(47):  offer_047 - seller_010 <= -0
constr(48):  offer_048 - seller_011 <= -0
constr(49):  offer_049 - seller_011 <= -0
constr(50):  offer_050 - seller_011 <= -0
constr(51):  offer_051 - seller_012 <= -0
constr(52):  offer_052 - seller_012 <= -0
constr(53):  offer_053 - seller_012 <= -0
constr(54):  offer_054 - seller_012 <= -0
constr(55):  offer_055 - seller_012 <= -0
constr(56):  offer_056 - seller_012 <= -0
constr(57):  offer_057 - seller_013 <= -0
constr(58):  offer_058 - seller_013 <= -0
constr(59):  offer_059 - seller_014 <= -0
constr(60):  offer_060 - seller_014 <= -0
constr(61):  offer_061 - seller_014 <= -0
constr(62):  offer_062 - seller_015 <= -0
constr(63):  offer_063 - seller_015 <= -0
constr(64):  offer_064 - seller_015 <= -0
constr(65):  offer_065 - seller_015 <= -0
constr(66):  offer_066 - seller_015 <= -0
constr(67):  offer_067 - seller_015 <= -0
constr(68):  offer_068 - seller_016 <= -0
constr(69):  offer_069 - seller_016 <= -0
constr(70):  offer_070 - seller_016 <= -0
constr(71):  offer_071 - seller_016 <= -0
constr(72):  offer_072 - seller_016 <= -0
constr(73):  offer_073 - seller_017 <= -0
constr(74):  offer_074 - seller_017 <= -0
constr(75):  offer_075 - seller_017 <= -0
constr(76):  offer_076 - seller_018 <= -0
constr(77):  offer_077 - seller_018 <= -0
constr(78):  offer_078 - seller_018 <= -0
constr(79):  offer_079 - seller_018 <= -0
constr(80):  offer_080 - seller_019 <= -0
constr(81):  offer_081 - seller_019 <= -0
constr(82):  offer_082 - seller_019 <= -0
constr(83):  offer_083 - seller_019 <= -0
constr(84):  offer_084 - seller_019 <= -0
constr(85):  offer_085 - seller_020 <= -0
constr(86):  offer_086 - seller_020 <= -0
constr(87):  offer_087 - seller_020 <= -0
constr(88):  offer_088 - seller_020 <= -0
constr(89):  offer_089 - seller_020 <= -0
constr(90):  offer_090 - seller_021 <= -0
constr(91):  offer_091 - seller_021 <= -0
constr(92):  offer_092 - seller_021 <= -0
constr(93):  offer_093 - seller_021 <= -0
constr(94):  offer_094 - seller_022 <= -0
constr(95):  offer_095 - seller_022 <= -0
constr(96):  offer_096 - seller_023 <= -0
constr(97):  offer_097 - seller_023 <= -0
constr(98):  offer_098 - seller_023 <= -0
constr(99):  offer_099 - seller_024 <= -0
constr(100):  offer_100 - seller_024 <= -0
constr(101):  offer_101 - seller_024 <= -0
constr(102):  offer_102 - seller_025 <= -0
constr(103):  offer_103 - seller_025 <= -0
constr(104):  offer_104 - seller_025 <= -0
constr(105):  offer_105 - seller_025 <= -0
constr(106):  offer_106 - seller_025 <= -0
constr(107):  offer_107 - seller_025 <= -0
constr(108):  offer_108 - seller_026 <= -0
constr(109):  offer_109 - seller_026 <= -0
constr(110):  offer_110 - seller_026 <= -0
constr(111):  offer_111 - seller_026 <= -0
constr(112):  offer_112 - seller_026 <= -0
constr(113):  offer_113 - seller_027 <= -0
constr(114):  offer_114 - seller_027 <= -0
constr(115):  offer_115 - seller_027 <= -0
constr(116):  offer_116 - seller_027 <= -0
constr(117):  offer_117 - seller_027 <= -0
constr(118):  offer_118 - seller_027 <= -0
constr(119):  offer_119 - seller_027 <= -0
constr(120):  offer_120 - seller_028 <= -0
constr(121):  offer_121 - seller_028 <= -0
constr(122):  offer_122 - seller_028 <= -0
constr(123):  offer_123 - seller_028 <= -0
constr(124):  offer_124 - seller_028 <= -0
constr(125):  offer_125 - seller_028 <= -0
constr(126):  offer_126 - seller_028 <= -0
constr(127):  offer_127 - seller_028 <= -0
constr(128):  offer_128 - seller_029 <= -0
constr(129):  offer_129 - seller_029 <= -0
constr(130):  offer_130 - seller_029 <= -0
constr(131):  offer_131 - seller_029 <= -0
constr(132):  offer_132 - seller_030 <= -0
constr(133):  offer_133 - seller_030 <= -0
constr(134):  offer_134 - seller_031 <= -0
constr(135):  offer_135 - seller_031 <= -0
constr(136):  offer_136 - seller_031 <= -0
constr(137):  offer_137 - seller_031 <= -0
constr(138):  offer_138 - seller_031 <= -0
constr(139):  offer_139 - seller_032 <= -0
constr(140):  offer_140 - seller_032 <= -0
constr(141):  offer_141 - seller_032 <= -0
constr(142):  offer_142 - seller_032 <= -0
constr(143):  offer_143 - seller_032 <= -0
constr(144):  offer_144 - seller_032 <= -0
constr(145):  offer_145 - seller_032 <= -0
constr(146):  offer_146 - seller_032 <= -0
constr(147):  offer_147 - seller_032 <= -0
constr(148):  offer_148 - seller_033 <= -0
constr(149):  offer_149 - seller_033 <= -0
constr(150):  offer_150 - seller_033 <= -0
constr(151):  offer_151 - seller_033 <= -0
constr(152):  offer_152 - seller_034 <= -0
constr(153):  offer_153 - seller_034 <= -0
constr(154):  offer_154 - seller_034 <= -0
constr(155):  offer_155 - seller_034 <= -0
constr(156):  offer_156 - seller_034 <= -0
constr(157):  offer_157 - seller_034 <= -0
constr(158):  offer_158 - seller_034 <= -0
constr(159):  offer_159 - seller_034 <= -0
constr(160):  offer_160 - seller_035 <= -0
constr(161):  offer_161 - seller_035 <= -0
constr(162):  offer_162 - seller_035 <= -0
constr(163):  offer_163 - seller_035 <= -0
constr(164):  offer_164 - seller_036 <= -0
constr(165):  offer_165 - seller_036 <= -0
constr(166):  offer_166 - seller_036 <= -0
constr(167):  offer_167 - seller_036 <= -0
constr(168):  offer_168 - seller_037 <= -0
constr(169):  offer_169 - seller_037 <= -0
constr(170):  offer_170 - seller_037 <= -0
constr(171):  offer_171 - seller_037 <= -0
constr(172):  offer_172 - seller_038 <= -0
constr(173):  offer_173 - seller_038 <= -0
constr(174):  offer_174 - seller_038 <= -0
constr(175):  offer_175 - seller_038 <= -0
constr(176):  offer_176 - seller_039 <= -0
constr(177):  offer_177 - seller_039 <= -0
constr(178):  offer_178 - seller_039 <= -0
constr(179):  offer_179 - seller_039 <= -0
constr(180):  offer_180 - seller_039 <= -0
constr(181):  offer_181 - seller_040 <= -0
constr(182):  offer_182 - seller_040 <= -0
constr(183):  offer_183 - seller_040 <= -0
constr(184):  offer_184 - seller_041 <= -0
constr(185):  offer_185 - seller_041 <= -0
constr(186):  offer_186 - seller_041 <= -0
constr(187):  offer_187 - seller_041 <= -0
constr(188):  offer_188 - seller_041 <= -0
constr(189):  offer_189 - seller_041 <= -0
constr(190):  offer_190 - seller_041 <= -0
constr(191):  offer_191 - seller_041 <= -0
constr(192):  offer_192 - seller_041 <= -0
constr(193):  offer_193 - seller_041 <= -0
constr(194):  offer_194 - seller_042 <= -0
constr(195):  offer_195 - seller_042 <= -0
constr(196):  offer_196 - seller_042 <= -0
constr(197):  offer_197 - seller_042 <= -0
constr(198):  offer_198 - seller_042 <= -0
constr(199):  offer_199 - seller_042 <= -0
constr(200):  offer_200 - seller_042 <= -0
constr(201):  offer_201 - seller_042 <= -0
constr(202):  offer_202 - seller_042 <= -0
constr(203):  offer_203 - seller_043 <= -0
constr(204):  offer_204 - seller_043 <= -0
constr(205):  offer_205 - seller_043 <= -0
constr(206):  offer_206 - seller_043 <= -0
constr(207):  offer_207 - seller_043 <= -0
constr(208):  offer_208 - seller_044 <= -0
constr(209):  offer_209 - seller_044 <= -0
constr(210):  offer_210 - seller_044 <= -0
constr(211):  offer_211 - seller_044 <= -0
constr(212):  offer_212 - seller_044 <= -0
constr(213):  offer_213 - seller_044 <= -0
constr(214):  offer_214 - seller_044 <= -0
constr(215):  offer_215 - seller_044 <= -0
constr(216):  offer_216 - seller_045 <= -0
constr(217):  offer_217 - seller_045 <= -0
constr(218):  offer_218 - seller_045 <= -0
constr(219):  offer_219 - seller_045 <= -0
constr(220):  offer_220 - seller_045 <= -0
constr(221):  offer_221 - seller_045 <= -0
constr(222):  offer_222 - seller_046 <= -0
constr(223):  offer_223 - seller_046 <= -0
constr(224):  offer_224 - seller_046 <= -0
constr(225):  offer_225 - seller_047 <= -0
constr(226):  offer_226 - seller_047 <= -0
constr(227):  offer_227 - seller_048 <= -0
constr(228):  offer_228 - seller_048 <= -0
constr(229):  offer_229 - seller_048 <= -0
constr(230):  offer_230 - seller_048 <= -0
constr(231):  offer_231 - seller_048 <= -0
constr(232):  offer_232 - seller_049 <= -0
constr(233):  offer_233 - seller_049 <= -0
constr(234):  offer_234 - seller_049 <= -0
constr(235):  offer_235 - seller_049 <= -0
constr(236):  offer_236 - seller_050 <= -0
constr(237):  offer_237 - seller_050 <= -0
constr(238):  offer_238 - seller_051 <= -0
constr(239):  offer_239 - seller_051 <= -0
constr(240):  offer_240 - seller_051 <= -0
constr(241):  offer_241 - seller_051 <= -0
constr(242):  offer_242 - seller_051 <= -0
constr(243):  offer_243 - seller_051 <= -0
constr(244):  offer_244 - seller_051 <= -0
constr(245):  offer_245 - seller_052 <= -0
constr(246):  offer_246 - seller_053 <= -0
constr(247):  offer_247 - seller_054 <= -0
constr(248):  offer_248 - seller_055 <= -0
constr(249):  offer_249 - seller_056 <= -0
constr(250):  offer_250 - seller_057 <= -0
constr(251):  offer_251 - seller_058 <= -0
constr(252):  offer_000 + offer_030 + offer_036 + offer_043 + offer_072 + offer_079 + offer_089 + offer_092 + offer_118 + offer_144
 + offer_158 + offer_163 + offer_170 + offer_175 + offer_201 + offer_215 + offer_226 + offer_235 + offer_246 >= 1
constr(253):  offer_001 + offer_011 + offer_020 + offer_031 + offer_038 + offer_040 + offer_044 + offer_056 + offer_084 + offer_093
 + offer_095 + offer_098 + offer_101 + offer_107 + offer_112 + offer_119 + offer_131 + offer_138 + offer_147 + offer_151
 + offer_167 + offer_171 + offer_180 + offer_183 + offer_207 + offer_221 + offer_231 + offer_244 + offer_248 >= 1
constr(254):  offer_002 + offer_012 + offer_027 + offer_068 + offer_102 + offer_120 + offer_148 + offer_152 + offer_160 + offer_181
 + offer_184 + offer_194 + offer_216 + offer_238 + offer_250 >= 1
constr(255):  offer_003 + offer_013 + offer_021 + offer_023 + offer_041 + offer_045 + offer_051 + offer_057 + offer_073 + offer_076
 + offer_085 + offer_103 + offer_113 + offer_128 + offer_139 + offer_153 + offer_176 + offer_185 + offer_195 + offer_208
 + offer_227 + offer_239 + offer_251 >= 1
constr(256):  offer_004 + offer_014 + offer_028 + offer_032 + offer_037 + offer_039 + offer_046 + offer_058 + offer_074 + offer_080
 + offer_086 + offer_104 + offer_114 + offer_121 + offer_129 + offer_134 + offer_140 + offer_149 + offer_154 + offer_164
 + offer_186 + offer_196 + offer_209 + offer_217 + offer_222 + offer_228 >= 1
constr(257):  offer_005 + offer_016 + offer_034 + offer_048 + offer_054 + offer_099 + offer_105 + offer_108 + offer_124 + offer_141
 + offer_177 + offer_189 + offer_197 + offer_211 + offer_218 + offer_241 >= 1
constr(258):  offer_006 + offer_017 + offer_025 + offer_049 + offer_055 + offer_063 + offer_070 + offer_077 + offer_087 + offer_091
 + offer_106 + offer_109 + offer_115 + offer_130 + offer_142 + offer_155 + offer_173 + offer_198 + offer_204 + offer_212
 + offer_233 + offer_236 >= 1
constr(259):  offer_007 + offer_018 + offer_065 + offer_117 + offer_125 + offer_136 + offer_178 + offer_190 + offer_213 >= 1
constr(260):  offer_008 + offer_019 + offer_026 + offer_029 + offer_035 + offer_042 + offer_050 + offer_060 + offer_066 + offer_075
 + offer_082 + offer_094 + offer_097 + offer_100 + offer_111 + offer_126 + offer_133 + offer_156 + offer_161 + offer_166
 + offer_191 + offer_214 + offer_224 + offer_225 + offer_229 + offer_242 + offer_247 >= 1
constr(261):  offer_009 + offer_022 + offer_047 + offer_061 + offer_078 + offer_083 + offer_127 + offer_137 + offer_143 + offer_150
 + offer_157 + offer_162 + offer_179 + offer_192 + offer_200 + offer_220 + offer_230 + offer_243 + offer_249 >= 1
constr(262):  offer_010 + offer_146 + offer_202 >= 1
constr(263):  offer_015 + offer_053 + offer_081 + offer_123 + offer_132 + offer_188 >= 1
constr(264):  offer_024 + offer_033 + offer_052 + offer_059 + offer_062 + offer_069 + offer_090 + offer_096 + offer_122 + offer_165
 + offer_168 + offer_172 + offer_182 + offer_187 + offer_203 + offer_210 + offer_232 + offer_240 + offer_245 >= 1
constr(265):  offer_064 + offer_071 + offer_088 + offer_110 + offer_116 + offer_135 + offer_169 + offer_174 + offer_199 + offer_205
 + offer_219 + offer_223 + offer_234 + offer_237 >= 1
constr(266):  offer_067 + offer_145 + offer_159 + offer_193 + offer_206 >= 1
Bounds
 0 <= offer_000 <= 1
 0 <= offer_001 <= 1
 0 <= offer_002 <= 1
 0 <= offer_003 <= 1
 0 <= offer_004 <= 1
 0 <= offer_005 <= 1
 0 <= offer_006 <= 1
 0 <= offer_007 <= 1
 0 <= offer_008 <= 1
 0 <= offer_009 <= 1
 0 <= offer_010 <= 1
 0 <= offer_011 <= 1
 0 <= offer_012 <= 1
 0 <= offer_013 <= 1
 0 <= offer_014 <= 1
 0 <= offer_015 <= 1
 0 <= offer_016 <= 1
 0 <= offer_017 <= 1
 0 <= offer_018 <= 1
 0 <= offer_019 <= 1
 0 <= offer_020 <= 1
 0 <= offer_021 <= 1
 0 <= offer_022 <= 1
 0 <= offer_023 <= 1
 0 <= offer_024 <= 1
 0 <= offer_025 <= 1
 0 <= offer_026 <= 1
 0 <= offer_027 <= 1
 0 <= offer_028 <= 1
 0 <= offer_029 <= 1
 0 <= offer_030 <= 1
 0 <= offer_031 <= 1
 0 <= offer_032 <= 1
 0 <= offer_033 <= 1
 0 <= offer_034 <= 1
 0 <= offer_035 <= 1
 0 <= offer_036 <= 1
 0 <= offer_037 <= 1
 0 <= offer_038 <= 1
 0 <= offer_039 <= 1
 0 <= offer_040 <= 1
 0 <= offer_041 <= 1
 0 <= offer_042 <= 1
 0 <= offer_043 <= 1
 0 <= offer_044 <= 1
 0 <= offer_045 <= 1
 0 <= offer_046 <= 1
 0 <= offer_047 <= 1
 0 <= offer_048 <= 1
 0 <= offer_049 <= 1
 0 <= offer_050 <= 1
 0 <= offer_051 <= 1
 0 <= offer_052 <= 1
 0 <= offer_053 <= 1
 0 <= offer_054 <= 1
 0 <= offer_055 <= 1
 0 <= offer_056 <= 1
 0 <= offer_057 <= 1
 0 <= offer_058 <= 1
 0 <= offer_059 <= 1
 0 <= offer_060 <= 1
 0 <= offer_061 <= 1
 0 <= offer_062 <= 1
 0 <= offer_063 <= 1
 0 <= offer_064 <= 1
 0 <= offer_065 <= 1
 0 <= offer_066 <= 1
 0 <= offer_067 <= 1
 0 <= offer_068 <= 1
 0 <= offer_069 <= 1
 0 <= offer_070 <= 1
 0 <= offer_071 <= 1
 0 <= offer_072 <= 1
 0 <= offer_073 <= 1
 0 <= offer_074 <= 1
 0 <= offer_075 <= 1
 0 <= offer_076 <= 1
 0 <= offer_077 <= 1
 0 <= offer_078 <= 1
 0 <= offer_079 <= 1
 0 <= offer_080 <= 1
 0 <= offer_081 <= 1
 0 <= offer_082 <= 1
 0 <= offer_083 <= 1
 0 <= offer_084 <= 1
 0 <= offer_085 <= 1
 0 <= offer_086 <= 1
 0 <= offer_087 <= 1
 0 <= offer_088 <= 1
 0 <= offer_089 <= 1
 0 <= offer_090 <= 1
 0 <= offer_091 <= 1
 0 <= offer_092 <= 1
 0 <= offer_093 <= 1
 0 <= offer_094 <= 1
 0 <= offer_095 <= 1
 0 <= offer_096 <= 1
 0 <= offer_097 <= 1
 0 <= offer_098 <= 1
 0 <= offer_099 <= 1
 0 <= offer_100 <= 1
 0 <= offer_101 <= 1
 0 <= offer_102 <= 1
 0 <= offer_103 <= 1
 0 <= offer_104 <= 1
 0 <= offer_105 <= 1
 0 <= offer_106 <= 1
 0 <= offer_107 <= 1
 0 <= offer_108 <= 1
 0 <= offer_109 <= 1
 0 <= offer_110 <= 1
 0 <= offer_111 <= 1
 0 <= offer_112 <= 1
 0 <= offer_113 <= 1
 0 <= offer_114 <= 1
 0 <= offer_115 <= 1
 0 <= offer_116 <= 1
 0 <= offer_117 <= 1
 0 <= offer_118 <= 1
 0 <= offer_119 <= 1
 0 <= offer_120 <= 1
 0 <= offer_121 <= 1
 0 <= offer_122 <= 1
 0 <= offer_123 <= 1
 0 <= offer_124 <= 1
 0 <= offer_125 <= 1
 0 <= offer_126 <= 1
 0 <= offer_127 <= 1
 0 <= offer_128 <= 1
 0 <= offer_129 <= 1
 0 <= offer_130 <= 1
 0 <= offer_131 <= 1
 0 <= offer_132 <= 1
 0 <= offer_133 <= 1
 0 <= offer_134 <= 1
 0 <= offer_135 <= 1
 0 <= offer_136 <= 1
 0 <= offer_137 <= 1
 0 <= offer_138 <= 1
 0 <= offer_139 <= 1
 0 <= offer_140 <= 1
 0 <= offer_141 <= 1
 0 <= offer_142 <= 1
 0 <= offer_143 <= 1
 0 <= offer_144 <= 1
 0 <= offer_145 <= 1
 0 <= offer_146 <= 1
 0 <= offer_147 <= 1
 0 <= offer_148 <= 1
 0 <= offer_149 <= 1
 0 <= offer_150 <= 1
 0 <= offer_151 <= 1
 0 <= offer_152 <= 1
 0 <= offer_153 <= 1
 0 <= offer_154 <= 1
 0 <= offer_155 <= 1
 0 <= offer_156 <= 1
 0 <= offer_157 <= 1
 0 <= offer_158 <= 1
 0 <= offer_159 <= 1
 0 <= offer_160 <= 1
 0 <= offer_161 <= 1
 0 <= offer_162 <= 1
 0 <= offer_163 <= 1
 0 <= offer_164 <= 1
 0 <= offer_165 <= 1
 0 <= offer_166 <= 1
 0 <= offer_167 <= 1
 0 <= offer_168 <= 1
 0 <= offer_169 <= 1
 0 <= offer_170 <= 1
 0 <= offer_171 <= 1
 0 <= offer_172 <= 1
 0 <= offer_173 <= 1
 0 <= offer_174 <= 1
 0 <= offer_175 <= 1
 0 <= offer_176 <= 1
 0 <= offer_177 <= 1
 0 <= offer_178 <= 1
 0 <= offer_179 <= 1
 0 <= offer_180 <= 1
 0 <= offer_181 <= 1
 0 <= offer_182 <= 1
 0 <= offer_183 <= 1
 0 <= offer_184 <= 1
 0 <= offer_185 <= 1
 0 <= offer_186 <= 1
 0 <= offer_187 <= 1
 0 <= offer_188 <= 1
 0 <= offer_189 <= 1
 0 <= offer_190 <= 1
 0 <= offer_191 <= 1
 0 <= offer_192 <= 1
 0 <= offer_193 <= 1
 0 <= offer_194 <= 1
 0 <= offer_195 <= 1
 0 <= offer_196 <= 1
 0 <= offer_197 <= 1
 0 <= offer_198 <= 1
 0 <= offer_199 <= 1
 0 <= offer_200 <= 1
 0 <= offer_201 <= 1
 0 <= offer_202 <= 1
 0 <= offer_203 <= 1
 0 <= offer_204 <= 1
 0 <= offer_205 <= 1
 0 <= offer_206 <= 1
 0 <= offer_207 <= 1
 0 <= offer_208 <= 1
 0 <= offer_209 <= 1
 0 <= offer_210 <= 1
 0 <= offer_211 <= 1
 0 <= offer_212 <= 1
 0 <= offer_213 <= 1
 0 <= offer_214 <= 1
 0 <= offer_215 <= 1
 0 <= offer_216 <= 1
 0 <= offer_217 <= 1
 0 <= offer_218 <= 1
 0 <= offer_219 <= 1
 0 <= offer_220 <= 1
 0 <= offer_221 <= 1
 0 <= offer_222 <= 1
 0 <= offer_223 <= 1
 0 <= offer_224 <= 1
 0 <= offer_225 <= 1
 0 <= offer_226 <= 1
 0 <= offer_227 <= 1
 0 <= offer_228 <= 1
 0 <= offer_229 <= 1
 0 <= offer_230 <= 1
 0 <= offer_231 <= 1
 0 <= offer_232 <= 1
 0 <= offer_233 <= 1
 0 <= offer_234 <= 1
 0 <= offer_235 <= 1
 0 <= offer_236 <= 1
 0 <= offer_237 <= 1
 0 <= offer_238 <= 1
 0 <= offer_239 <= 1
 0 <= offer_240 <= 1
 0 <= offer_241 <= 1
 0 <= offer_242 <= 1
 0 <= offer_243 <= 1
 0 <= offer_244 <= 1
 0 <= offer_245 <= 1
 0 <= offer_246 <= 1
 0 <= offer_247 <= 1
 0 <= offer_248 <= 1
 0 <= offer_249 <= 1
 0 <= offer_250 <= 1
 0 <= offer_251 <= 1
 0 <= seller_000 <= 1
 0 <= seller_001 <= 1
 0 <= seller_002 <= 1
 0 <= seller_003 <= 1
 0 <= seller_004 <= 1
 0 <= seller_005 <= 1
 0 <= seller_006 <= 1
 0 <= seller_007 <= 1
 0 <= seller_008 <= 1
 0 <= seller_009 <= 1
 0 <= seller_010 <= 1
 0 <= seller_011 <= 1
 0 <= seller_012 <= 1
 0 <= seller_013 <= 1
 0 <= seller_014 <= 1
 0 <= seller_015 <= 1
 0 <= seller_016 <= 1
 0 <= seller_017 <= 1
 0 <= seller_018 <= 1
 0 <= seller_019 <= 1
 0 <= seller_020 <= 1
 0 <= seller_021 <= 1
 0 <= seller_022 <= 1
 0 <= seller_023 <= 1
 0 <= seller_024 <= 1
 0 <= seller_025 <= 1
 0 <= seller_026 <= 1
 0 <= seller_027 <= 1
 0 <= seller_028 <= 1
 0 <= seller_029 <= 1
 0 <= seller_030 <= 1
 0 <= seller_031 <= 1
 0 <= seller_032 <= 1
 0 <= seller_033 <= 1
 0 <= seller_034 <= 1
 0 <= seller_035 <= 1
 0 <= seller_036 <= 1
 0 <= seller_037 <= 1
 0 <= seller_038 <= 1
 0 <= seller_039 <= 1
 0 <= seller_040 <= 1
 0 <= seller_041 <= 1
 0 <= seller_042 <= 1
 0 <= seller_043 <= 1
 0 <= seller_044 <= 1
 0 <= seller_045 <= 1
 0 <= seller_046 <= 1
 0 <= seller_047 <= 1
 0 <= seller_048 <= 1
 0 <= seller_049 <= 1
 0 <= seller_050 <= 1
 0 <= seller_051 <= 1
 0 <= seller_052 <= 1
 0 <= seller_053 <= 1
 0 <= seller_054 <= 1
 0 <= seller_055 <= 1
 0 <= seller_056 <= 1
 0 <= seller_057 <= 1
 0 <= seller_058 <= 1
Integers
offer_000 offer_001 offer_002 offer_003 offer_004 offer_005 offer_006 offer_007 offer_008 offer_009 
offer_010 offer_011 offer_012 offer_013 offer_014 offer_015 offer_016 offer_017 offer_018 offer_019 
offer_020 offer_021 offer_022 offer_023 offer_024 offer_025 offer_026 offer_027 offer_028 offer_029 
offer_030 offer_031 offer_032 offer_033 offer_034 offer_035 offer_036 offer_037 offer_038 offer_039 
offer_040 offer_041 offer_042 offer_043 offer_044 offer_045 offer_046 offer_047 offer_048 offer_049 
offer_050 offer_051 offer_052 offer_053 offer_054 offer_055 offer_056 offer_057 offer_058 offer_059 
offer_060 offer_061 offer_062 offer_063 offer_064 offer_065 offer_066 offer_067 offer_068 offer_069 
offer_070 offer_071 offer_072 offer_073 offer_074 offer_075 offer_076 offer_077 offer_078 offer_079 
offer_080 offer_081 offer_082 offer_083 offer_084 offer_085 offer_086 offer_087 offer_088 offer_089 
offer_090 offer_091 offer_092 offer_093 offer_094 offer_095 offer_096 offer_097 offer_098 offer_099 
offer_100 offer_101 offer_102 offer_103 offer_104 offer_105 offer_106 offer_107 offer_108 offer_109 
offer_110 offer_111 offer_112 offer_113 offer_114 offer_115 offer_116 offer_117 offer_118 offer_119 
offer_120 offer_121 offer_122 offer_123 offer_124 offer_125 offer_126 offer_127 offer_128 offer_129 
offer_130 offer_131 offer_132 offer_133 offer_134 offer_135 offer_136 offer_137 offer_138 offer_139 
offer_140 offer_141 offer_142 offer_143 offer_144 offer_145 offer_146 offer_147 offer_148 offer_149 
offer_150 offer_151 offer_152 offer_153 offer_154 offer_155 offer_156 offer_157 offer_158 offer_159 
offer_160 offer_161 offer_162 offer_163 offer_164 offer_165 offer_166 offer_167 offer_168 offer_169 
offer_170 offer_171 offer_172 offer_173 offer_174 offer_175 offer_176 offer_177 offer_178 offer_179 
offer_180 offer_181 offer_182 offer_183 offer_184 offer_185 offer_186 offer_187 offer_188 offer_189 
offer_190 offer_191 offer_192 offer_193 offer_194 offer_195 offer_196 offer_197 offer_198 offer_199 
offer_200 offer_201 offer_202 offer_203 offer_204 offer_205 offer_206 offer_207 offer_208 offer_209 
offer_210 offer_211 offer_212 offer_213 offer_214 offer_215 offer_216 offer_217 offer_218 offer_219 
offer_220 offer_221 offer_222 offer_223 offer_224 offer_225 offer_226 offer_227 offer_228 offer_229 
offer_230 offer_231 offer_232 offer_233 offer_234 offer_235 offer_236 offer_237 offer_238 offer_239 
offer_240 offer_241 offer_242 offer_243 offer_244 offer_245 offer_246 offer_247 offer_248 offer_249 
offer_250 offer_251 seller_000 seller_001 seller_002 seller_003 seller_004 seller_005 seller_006 seller_007 
seller_008 seller_009 seller_010 seller_011 seller_012 seller_013 seller_014 seller_015 seller_016 seller_017 
seller_018 seller_019 seller_020 seller_021 seller_022 seller_023 seller_024 seller_025 seller_026 seller_027 
seller_028 seller_029 seller_030 seller_031 seller_032 seller_033 seller_034 seller_035 seller_036 seller_037 
seller_038 seller_039 seller_040 seller_041 seller_042 seller_043 seller_044 seller_045 seller_046 seller_047 
seller_048 seller_049 seller_050 seller_051 seller_052 seller_053 seller_054 seller_055 seller_056 seller_057 
seller_058 
End
